; benchmark generated from python API
(set-info :status unknown)
(declare-fun S_2 () Real)
(declare-fun S_0 () Real)
(declare-fun C () Real)
(declare-fun S_1 () Real)
(declare-fun S_3 () Real)
(declare-fun S_5 () Real)
(declare-fun S_4 () Real)
(declare-fun L0 () Real)
(declare-fun A_0 () Real)
(declare-fun B () Real)
(declare-fun A_1 () Real)
(declare-fun A_2 () Real)
(declare-fun A_5 () Real)
(declare-fun A_3 () Real)
(declare-fun A_4 () Real)
(assert
 (let (($x42 (>= L0 0.0)))
 (let (($x679 (>= C 5.0)))
 (let (($x736 (>= B 5.0)))
 (let ((?x1062 (* (- 1.0) S_0)))
 (let ((?x613 (* (- 1.0) A_2)))
 (let ((?x601 (* (- 1.0) A_5)))
 (let ((?x1703 (* (- 2.0) B)))
 (let ((?x2261 (* (- 3.0) C)))
 (let ((?x404 (* (- 1.0) S_2)))
 (let ((?x281 (* (- 1.0) C)))
 (let ((?x358 (* (- 1.0) S_1)))
 (let ((?x688 (* (- 2.0) C)))
 (let (($x46503 (<= (+ ?x2261 (* (- 1.0) A_3) ?x1703 A_4 ?x601 A_1 S_5 ?x1062) 0.0)))
 (let (($x48184 (<= (+ ?x688 (* (- 1.0) A_3) ?x1703 A_4 ?x601 A_1 S_5 ?x358) 0.0)))
 (let (($x41769 (<= (+ A_1 ?x1703 (* (- 1.0) A_3) A_4 ?x601 S_5 (* (- 1.0) S_3)) 0.0)))
 (let (($x508 (<= (+ ?x281 A_2 (* (- 1.0) A_1) B) 0.0)))
 (let (($x46637 (<= (+ (* (- 1.0) B) ?x281 A_4 ?x601 S_5 (* (- 1.0) S_4)) 0.0)))
 (let (($x46056 (<= (+ ?x688 (* (- 1.0) A_1) B A_3) 0.0)))
 (let (($x46065 (not $x46056)))
 (let (($x522 (<= (+ ?x281 ?x613 A_3) 0.0)))
 (let (($x42900 (not $x522)))
 (let (($x7402 (<= (+ A_3 ?x601 S_5 (* (- 1.0) S_4)) 0.0)))
 (let ((?x593 (* (- 1.0) S_5)))
 (let ((?x617 (* (- 1.0) A_1)))
 (let ((?x687 (* 2.0 C)))
 (let (($x47265 (<= (+ ?x687 A_2 ?x617 B ?x593 S_1) 0.0)))
 (let (($x45934 (<= 0.0 (+ C (* (- 1.0) B) (* (- 1.0) A_4) A_3))))
 (let (($x45405 (not $x508)))
 (let (($x443 (<= 0.0 (+ C A_2 B (* (- 1.0) A_3)))))
 (let (($x49738 (<= (+ ?x2261 ?x613 A_1 ?x1703 (* (- 1.0) A_4) A_3 S_4 ?x1062) 0.0)))
 (let (($x51431 (<= (+ C (* 2.0 B) A_4 (* (- 1.0) A_3) A_2 ?x617 ?x593 S_1) 0.0)))
 (let (($x44782 (not $x45934)))
 (let ((?x609 (* (- 1.0) A_3)))
 (let ((?x1708 (* 2.0 B)))
 (let (($x85199 (or $x443 $x44782 $x45405 (<= (+ ?x687 A_2 ?x617 ?x1708 A_4 ?x609 ?x593 S_0) 0.0))))
 (let (($x46660 (<= (+ ?x281 (* (- 1.0) B) A_3 ?x601 S_5 (* (- 1.0) S_3)) 0.0)))
 (let (($x45420 (<= 0.0 (+ C ?x613 A_1))))
 (let (($x45968 (not $x45420)))
 (let (($x45805 (<= (+ ?x281 ?x617 B A_3 (* (- 1.0) S_4) S_2) 0.0)))
 (let (($x292 (<= (+ C (* (- 1.0) S_4) S_2) 0.0)))
 (let (($x44921 (<= (+ C ?x593 S_3) 0.0)))
 (let (($x24544 (<= (+ ?x613 B A_4 ?x593 S_2) 0.0)))
 (let (($x50675 (<= (+ ?x688 ?x613 A_1 ?x1703 (* (- 1.0) A_4) A_3 S_4 ?x358) 0.0)))
 (let (($x48431 (<= (+ ?x281 ?x617 B A_4 ?x593 S_2) 0.0)))
 (let (($x45966 (<= (+ ?x687 ?x593 S_2) 0.0)))
 (let (($x44154 (<= (+ ?x281 A_4 ?x609) 0.0)))
 (let (($x43824 (not $x44154)))
 (let (($x86058 (or $x7402 $x45405 (<= (+ C A_2 ?x601 S_5 (* (- 1.0) S_4)) 0.0))))
 (let (($x46771 (<= (+ ?x2261 ?x1703 (* (- 1.0) A_4) A_3 ?x613 A_1 S_5 ?x358) 0.0)))
 (let (($x45248 (<= 0.0 (+ C A_2 (* (- 1.0) B) ?x609))))
 (let (($x51098 (or (<= (+ (* 3.0 C) (* (- 1.0) S_4) S_0) 0.0) $x508 $x45248 $x46056)))
 (let ((?x605 (* (- 1.0) A_4)))
 (let ((?x2916 (* (- 4.0) C)))
 (let (($x49166 (<= (+ ?x281 A_3 ?x605 S_5 (* (- 1.0) S_4)) 0.0)))
 (let (($x46135 (<= (+ ?x687 A_1 (* (- 1.0) B) ?x601 S_5 (* (- 1.0) S_4)) 0.0)))
 (let (($x46581 (<= (+ (* 3.0 C) ?x593 S_1) 0.0)))
 (let (($x45458 (<= (+ ?x688 ?x617 A_3) 0.0)))
 (let (($x45931 (not $x45458)))
 (let (($x23571 (<= (+ ?x617 B A_4 ?x593 S_1) 0.0)))
 (let (($x42528 (<= (+ ?x688 ?x613 A_4) 0.0)))
 (let (($x48754 (not $x42528)))
 (let (($x45366 (not $x443)))
 (let (($x47270 (<= (+ (* 3.0 C) A_2 B ?x617 ?x593 S_0) 0.0)))
 (let (($x48815 (<= (+ C A_4 B ?x617 ?x593 S_0) 0.0)))
 (let (($x43961 (<= (+ (* 4.0 C) ?x593 S_0) 0.0)))
 (let (($x49471 (<= (+ C A_1 (* (- 1.0) B) ?x605 S_5 (* (- 1.0) S_4)) 0.0)))
 (let (($x9000 (<= (+ B A_4 ?x609 ?x593 S_3) 0.0)))
 (let (($x86514 (or $x508 (<= (+ A_1 (* (- 1.0) B) ?x605 S_5 (* (- 1.0) S_3)) 0.0))))
 (let (($x46143 (<= (+ C A_1 (* (- 1.0) B) ?x601 S_5 (* (- 1.0) S_3)) 0.0)))
 (let (($x48506 (<= (+ C A_1 (* (- 1.0) B) ?x605 S_4 (* (- 1.0) S_3)) 0.0)))
 (let (($x45596 (<= (+ C ?x613 B A_4 ?x593 S_1) 0.0)))
 (let (($x45142 (not $x45248)))
 (let (($x46221 (<= (+ ?x687 ?x613 B A_4 ?x593 S_0) 0.0)))
 (let (($x85909 (or $x42900 $x45248 $x45420 $x46221 (not (<= 0.0 (+ ?x687 A_2 (* (- 1.0) B) ?x605))))))
 (let (($x46879 (<= (+ B (* 3.0 C) A_4 ?x609 ?x593 S_0) 0.0)))
 (let (($x47289 (<= (+ B ?x687 A_4 ?x609 ?x593 S_1) 0.0)))
 (let (($x47184 (<= (+ (* (- 1.0) B) ?x281 ?x605 A_3 S_4 (* (- 1.0) S_3)) 0.0)))
 (let (($x85661 (or (<= (+ A_2 (* (- 1.0) B) ?x605 S_5 (* (- 1.0) S_4)) 0.0) $x45248)))
 (let (($x47669 (<= (+ ?x281 A_1 (* (- 1.0) B) ?x609 S_5 (* (- 1.0) S_3)) 0.0)))
 (let (($x49172 (<= (+ ?x281 A_2 (* (- 1.0) B) ?x605 S_5 (* (- 1.0) S_3)) 0.0)))
 (let (($x84165 (or $x42900 $x44154 $x45968 (<= (+ C A_3 B ?x617 ?x593 S_1) 0.0) $x46581)))
 (let (($x85527 (or $x522 $x45405 (<= (+ ?x687 A_2 B ?x617 (* (- 1.0) S_4) S_0) 0.0))))
 (let (($x84090 (or $x508 (<= (+ ?x609 A_1 (* (- 1.0) B) S_4 (* (- 1.0) S_3)) 0.0))))
 (let (($x83505 (or $x42900 $x44154 $x45968 $x46065 (<= (+ ?x687 ?x617 B A_3 ?x593 S_0) 0.0))))
 (let (($x47566 (or $x42900 $x45968 $x46065 (<= (+ C ?x617 B A_3 (* (- 1.0) S_4) S_0) 0.0))))
 (let (($x46938 (<= (+ ?x687 (* (- 1.0) S_4) S_1) 0.0)))
 (let (($x2022 (<= (+ A_3 B ?x617 (* (- 1.0) S_4) S_1) 0.0)))
 (let (($x43899 (<= (+ (* (- 1.0) B) ?x688 A_4 ?x601 S_5 (* (- 1.0) S_3)) 0.0)))
 (let (($x84056 (or $x45420 (<= (+ B C ?x613 A_3 (* (- 1.0) S_4) S_1) 0.0) $x46938)))
 (let (($x84206 (or $x45142 $x45420 (<= (+ B ?x687 ?x613 A_3 (* (- 1.0) S_4) S_0) 0.0))))
 (let (($x84878 (or $x44154 $x45142 $x45420 (<= (+ B (* 3.0 C) ?x613 A_3 ?x593 S_0) 0.0))))
 (let (($x85847 (or $x522 $x45405 (<= (+ C A_2 ?x617 B (* (- 1.0) S_4) S_1) 0.0))))
 (let (($x83979 (or $x292 (<= (+ A_3 B ?x613 (* (- 1.0) S_4) S_2) 0.0) $x45420)))
 (let (($x46613 (<= (+ (* (- 1.0) B) ?x688 ?x605 A_3 S_5 (* (- 1.0) S_3)) 0.0)))
 (let (($x43546 (<= (+ (* (- 1.0) B) ?x281 ?x605 A_3 S_5 (* (- 1.0) S_4)) 0.0)))
 (let (($x46427 (<= (+ (* (- 1.0) B) ?x281 A_2 ?x609 S_4 (* (- 1.0) S_3)) 0.0)))
 (let (($x46395 (<= (+ (* (- 1.0) B) ?x688 A_2 ?x609 S_5 (* (- 1.0) S_3)) 0.0)))
 (let (($x46355 (<= (+ ?x281 A_2 ?x1703 ?x609 A_4 ?x601 S_5 (* (- 1.0) S_3)) 0.0)))
 (let ((?x284 (* (- 1.0) S_3)))
 (let ((?x664 (* (- 1.0) B)))
 (let (($x85486 (or $x45405 (<= (+ ?x281 A_2 ?x609 ?x664 A_4 ?x601 S_5 ?x284) 0.0))))
 (let (($x85616 (or $x45248 (<= (+ C A_2 ?x664 ?x601 S_5 (* (- 1.0) S_4)) 0.0))))
 (let (($x131 (>= S_1 S_0)))
 (let (($x134 (>= S_2 S_1)))
 (let (($x137 (>= S_3 S_2)))
 (let (($x140 (>= S_4 S_3)))
 (let (($x143 (>= S_5 S_4)))
 (let (($x145 (>= A_1 A_0)))
 (let (($x146 (>= A_2 A_1)))
 (let (($x147 (>= A_3 A_2)))
 (let (($x148 (>= A_4 A_3)))
 (let (($x149 (>= A_5 A_4)))
 (and $x149 $x148 $x147 $x146 $x145 $x143 $x140 $x137 $x134 $x131 (or $x292 $x2022 $x45405) (or (<= (+ A_2 B ?x617 ?x284 S_1) 0.0) $x45405) (or $x508 (<= (+ C ?x284 S_1) 0.0)) (or (<= (+ ?x687 ?x284 S_0) 0.0) $x508) (or $x522 $x43961 $x45420 $x45934) (or (<= 0.0 (+ ?x687 A_2 ?x664 ?x605)) $x42900 $x43961 $x45248 $x45420) (<= (+ ?x688 S_2 ?x358) 0.0) (<= (+ ?x2261 S_4 ?x404) 0.0) (<= (+ ?x688 ?x613 A_1 ?x1703 A_4 ?x601 S_5 ?x404) 0.0) (<= (+ ?x664 A_3 ?x601 S_5 (* (- 1.0) S_4)) 0.0) (<= (+ ?x281 A_2 ?x664 ?x601 S_5 ?x404) 0.0) (<= (+ ?x281 ?x609 A_1 ?x664 S_4 ?x404) 0.0) $x85616 (<= (+ A_2 ?x664 ?x601 S_5 ?x284) 0.0) (<= (+ ?x601 ?x664 A_1 S_5 ?x404) 0.0) (<= (+ ?x281 ?x609 ?x1703 A_4 ?x601 A_1 S_5 ?x404) 0.0) $x85486 $x46355 (<= (+ ?x664 ?x2916 A_2 ?x609 S_5 ?x358) 0.0) $x46395 (<= (+ ?x664 (* (- 5.0) C) A_2 ?x609 S_5 ?x1062) 0.0) (<= (+ ?x664 ?x2916 A_2 ?x609 S_4 ?x1062) 0.0) (<= (+ ?x664 ?x2261 A_2 ?x609 S_4 ?x358) 0.0) $x46427 (<= (+ ?x664 (* (- 5.0) C) ?x605 A_3 S_5 ?x1062) 0.0) (<= (+ ?x664 ?x2261 ?x605 A_3 S_5 ?x404) 0.0) $x43546 (<= (+ ?x688 ?x664 A_3 ?x601 S_5 ?x404) 0.0) (or $x44154 $x45420 $x45966 (<= (+ C A_3 B ?x613 ?x593 S_2) 0.0)) $x46613 (or $x44154 $x44921) (<= (+ ?x688 ?x613 A_1 ?x664 S_4 ?x404) 0.0) (<= (+ ?x664 ?x281 ?x613 A_1 S_3 ?x404) 0.0) (<= (+ ?x664 ?x688 A_2 ?x609 S_3 ?x358) 0.0) (<= (+ ?x2916 ?x664 A_3 ?x601 S_5 ?x1062) 0.0) (or $x522 $x44782 $x45420 $x46879) (<= (+ ?x664 ?x2916 ?x605 A_3 S_4 ?x1062) 0.0) (<= (+ ?x2261 ?x1062 S_2) 0.0) (or $x522 $x9000 $x44921 $x45420) (<= (+ ?x688 S_3 ?x404) 0.0) (<= (+ ?x664 ?x688 A_2 ?x609 S_4 ?x404) 0.0) (or $x522 $x44154 $x45966) (<= (+ ?x2916 ?x613 A_1 ?x664 S_4 ?x1062) 0.0) (<= (+ ?x688 ?x613 A_1 ?x664 ?x1062 S_2) 0.0) $x83979 (or $x522 $x44154 $x45405 $x47265) (or $x522 $x44782 $x45420 $x47289) (<= (+ ?x664 ?x2261 ?x605 A_3 S_4 ?x358) 0.0) (<= (+ ?x664 ?x2916 ?x605 A_3 S_5 ?x358) 0.0) (<= (+ ?x664 ?x688 ?x613 A_1 S_3 ?x358) 0.0) $x85847 (<= (+ ?x664 ?x2261 ?x613 A_1 S_3 ?x1062) 0.0) (<= (+ ?x688 ?x1703 ?x605 A_3 ?x613 A_1 S_5 ?x404) 0.0) $x84878 (<= (+ ?x664 ?x281 A_2 ?x609 S_3 ?x404) 0.0) (or $x522 $x45420 $x45966 (<= (+ B C A_4 ?x609 ?x593 S_2) 0.0)) (or $x522 $x44154 $x45405 $x47270) (or $x522 $x45420 $x45934 $x46581) (<= (+ ?x2916 S_3 ?x1062) 0.0) (<= (+ ?x2261 S_3 ?x358) 0.0) $x84206 (<= (+ ?x688 ?x609 A_1 ?x664 S_4 ?x358) 0.0) (<= (+ ?x281 ?x609 ?x664 A_1 S_3 ?x358) 0.0) (or $x44154 $x45142 $x45420 (<= (+ B ?x687 ?x613 A_3 ?x593 S_1) 0.0)) (<= (+ ?x664 ?x2261 A_2 ?x609 S_3 ?x1062) 0.0) $x84056 $x43899 (<= (+ ?x2916 S_4 ?x358) 0.0) (<= (+ (* (- 5.0) C) S_5 ?x358) 0.0) (<= (+ ?x688 A_1 ?x664 ?x609 S_5 ?x404) 0.0) (<= (+ ?x2261 ?x613 A_1 ?x664 S_4 ?x358) 0.0) (<= (+ ?x664 ?x2916 ?x613 A_1 S_5 ?x358) 0.0) (<= (+ ?x664 ?x2261 ?x613 A_1 S_5 ?x404) 0.0) (or $x508 $x2022 $x45248 $x46938) (or $x2022 $x42900 $x45968 $x46938) (<= (+ (* (- 6.0) C) S_5 ?x1062) 0.0) (or $x508 $x44154 $x45248 $x46056 $x46581) (or $x44154 $x45248 $x45966 $x46056) (or $x508 $x43961 $x44154 $x45248 $x46056) (or $x292 $x45248 $x46056) $x47566 $x83505 (<= (+ ?x609 ?x664 A_1 S_3 ?x404) 0.0) (<= (+ ?x281 ?x613 A_1 ?x664 S_2 ?x358) 0.0) (<= (+ ?x2261 ?x609 A_1 ?x664 S_4 ?x1062) 0.0) $x84090 (<= (+ ?x2916 S_5 ?x404) 0.0) (or $x45405 (<= (+ C A_2 B ?x617 ?x284 S_0) 0.0)) (or $x443 $x45934 $x45966) $x85527 (<= (+ ?x664 (* (- 5.0) C) ?x613 A_1 S_5 ?x1062) 0.0) (<= (+ A_2 ?x664 ?x605 S_4 ?x284) 0.0) (<= (+ ?x688 A_2 ?x664 ?x601 S_5 ?x358) 0.0) (<= (+ ?x281 A_2 ?x664 ?x605 S_4 ?x404) 0.0) $x84165 (or (<= (+ ?x617 B A_3 ?x593 S_2) 0.0) $x44154 $x45966 $x45968) (<= (+ ?x688 A_2 ?x664 ?x605 S_4 ?x358) 0.0) (or $x43824 $x45142 $x45420 $x46221) (or $x45142 $x49166) $x49172 (<= (+ ?x688 A_2 ?x664 ?x605 S_5 ?x404) 0.0) (or $x24544 $x43824 $x45142 $x45420) (<= (+ ?x2261 A_2 ?x664 ?x605 S_5 ?x358) 0.0) (or $x44154 $x45966 (<= (+ C ?x613 A_3 ?x593 S_2) 0.0)) (or $x508 $x47669) (<= (+ ?x2916 A_1 ?x664 ?x609 S_5 ?x1062) 0.0) (<= (+ ?x2261 A_1 ?x664 ?x609 S_5 ?x358) 0.0) (or $x45405 (<= (+ ?x281 A_2 ?x609 S_4 ?x284) 0.0)) (or (<= (+ A_4 ?x609 ?x593 S_3) 0.0) $x44921) (<= (+ ?x688 ?x609 ?x664 A_1 S_3 ?x1062) 0.0) (or $x42900 $x45248 $x45420 $x45596 $x46581) $x85661 (or $x42528 $x43824 $x45366 $x45405 $x47270) (or $x42528 $x43824 $x45366 $x45405 $x47265) (<= (+ ?x2261 A_2 ?x1703 ?x609 A_4 ?x601 S_5 ?x358) 0.0) (or $x9000 $x44921 (<= (+ ?x281 ?x613 A_4 ?x593 S_3) 0.0)) $x47184 (<= (+ ?x664 ?x688 ?x605 A_3 S_4 ?x404) 0.0) (or $x508 $x45458 $x45968 $x46581 $x47289) (or $x508 $x45458 $x45968 $x46581 $x46879) (or $x508 $x44782 $x45458 $x45968 $x46879) (or (<= (+ A_2 ?x605 S_4 ?x284) 0.0) $x45405) (or $x42900 $x44921 $x45420 (<= (+ ?x281 ?x613 B A_4 ?x593 S_3) 0.0)) (or $x292 (<= (+ ?x613 A_3 (* (- 1.0) S_4) S_2) 0.0)) (<= (+ ?x664 ?x2261 A_2 ?x609 S_5 ?x404) 0.0) (or $x7402 $x45142) (<= (+ ?x664 ?x2261 A_4 ?x601 S_5 ?x404) 0.0) (or $x45405 (<= (+ ?x688 A_2 ?x609 S_5 ?x284) 0.0)) $x85909 (<= (+ ?x2261 A_2 ?x664 ?x605 S_4 ?x1062) 0.0) (or $x43824 $x45142 $x45420 $x45596) (or $x508 $x48506) (or $x42900 $x43824 $x45968 $x46065 $x48815) (<= (+ ?x605 ?x664 A_1 S_4 ?x404) 0.0) (<= (+ ?x281 ?x605 ?x664 A_1 S_4 ?x358) 0.0) (or $x508 $x522 $x43961 $x45934 $x48815) (or $x508 $x46143) (or $x43824 $x45366 $x45405 $x48754 $x48815) (or $x508 $x522 $x43961 $x45931 $x48815) (<= (+ ?x281 A_1 ?x664 ?x605 S_5 ?x404) 0.0) (or $x522 (<= (+ A_2 ?x605 S_5 (* (- 1.0) S_4)) 0.0) $x45405) (<= (+ ?x688 A_1 ?x664 ?x605 S_5 ?x358) 0.0) (or (<= (+ ?x613 A_4 ?x593 S_2) 0.0) $x43824 $x45366 $x45966) (<= (+ ?x688 A_2 ?x1703 ?x609 A_4 ?x601 S_5 ?x404) 0.0) (<= (+ ?x2916 A_2 ?x664 ?x605 S_5 ?x1062) 0.0) (or $x24544 $x42900 $x45248 $x45420 $x45966) (or $x9000 $x44921 $x45968 (<= (+ ?x688 ?x617 B A_4 ?x593 S_3) 0.0)) (or $x508 $x522 $x49471) $x86514 (or $x9000 $x24544 $x45248 $x45966 $x46056 $x48431) (or $x42900 $x46056 $x49471) (or $x522 $x45966 (<= (+ B C A_4 ?x609 ?x593 S_2) 0.0) $x48431) (or $x42900 $x45968 $x46056 $x46581 $x48815) (or $x42900 $x43961 $x45968 $x46056 $x48815) (<= (+ ?x2261 A_2 ?x664 ?x601 S_5 ?x1062) 0.0) (<= (+ ?x664 (* (- 5.0) C) A_4 ?x601 S_5 ?x1062) 0.0) (<= (+ ?x281 ?x613 A_1 ?x1703 ?x605 A_3 S_4 ?x404) 0.0) (or $x443 $x45405 $x45934 $x47270) (or $x45405 (<= (+ ?x281 A_2 ?x605 S_5 ?x284) 0.0)) (<= (+ ?x2261 A_1 ?x664 ?x605 S_5 ?x1062) 0.0) (<= (+ ?x688 ?x605 ?x664 A_1 S_4 ?x1062) 0.0) (or $x23571 $x43824 $x45366 $x45405 $x48754) (or $x508 $x23571 $x43824 $x45931 $x45968 $x46581) (or $x508 $x46056 $x46135) (<= (+ ?x281 ?x601 ?x664 A_1 S_5 ?x358) 0.0) (<= (+ ?x2916 A_2 ?x1703 ?x609 A_4 ?x601 S_5 ?x1062) 0.0) (or $x42900 $x46065 $x49166) (<= (+ ?x2261 ?x613 A_1 ?x1703 A_4 ?x601 S_5 ?x358) 0.0) (or (<= (+ A_2 ?x601 S_5 ?x284) 0.0) $x45405) (<= (+ ?x2916 ?x613 A_1 ?x1703 A_4 ?x601 S_5 ?x1062) 0.0) (<= (+ ?x688 ?x601 ?x664 A_1 S_5 ?x1062) 0.0) (<= (+ ?x2916 ?x1703 ?x605 A_3 ?x613 A_1 S_5 ?x1062) 0.0) $x51098 $x46771 (<= (+ (* (- 5.0) C) S_4 ?x1062) 0.0) $x86058 (or $x42900 $x43824 $x45968 $x46581 $x48431) (or $x42900 $x43824 $x45966 $x45968 $x48431) $x50675 (or $x443 $x44782 (<= (+ B C A_4 ?x609 ?x593 S_2) 0.0)) (or $x292 $x24544 $x44921 $x45805) (or $x292 $x45805 $x45968) (or $x292 $x7402) (<= (+ ?x2261 ?x664 A_3 ?x601 S_5 ?x358) 0.0) $x46660 $x85199 (or $x443 $x44782 $x45405 $x51431) $x49738 (or $x443 $x45405 $x45934 $x47265) (or $x7402 $x42900 $x46065) $x46637 (or $x508 $x41769) (<= (+ ?x664 ?x2916 A_4 ?x601 S_5 ?x358) 0.0) $x48184 $x46503 (<= (+ ?x688 ?x1703 A_3 ?x601 ?x613 A_1 S_5 ?x358) 0.0) (<= (+ ?x281 ?x1703 A_3 ?x601 ?x613 A_1 S_5 ?x404) 0.0) (<= (+ ?x2261 ?x1703 A_3 ?x601 ?x613 A_1 S_5 ?x1062) 0.0) $x736 $x679 $x42 (not (>= (+ S_5 (* (- 1.0) A_0) L0) 0.0)) (<= (+ ?x688 S_4 ?x284) 0.0) (<= (+ ?x688 S_5 (* (- 1.0) S_4)) 0.0) (<= (+ ?x2261 S_5 ?x284) 0.0) (<= (+ ?x688 ?x1062 S_1) 0.0) (<= (+ C S_0 ?x404) 0.0)))))))))))))))))))))))))))))))))))))))))))))))))))))))))))))))))))))))))))))))))))))))))))))))))))))))))))))))))))
(check-sat)
